\ENCODING=ISO-8859-1
\Problem name: IloCplex

Minimize
 obj: 1000000000000 x1 + 1000000000000 x2 + 1000000000000 x3 + 1000000000000 x4
      + 1000000000000 x5 + 1000000000000 x6 + 1000000000000 x7
      + 1000000000000 x8 + 1000000000000 x9 + 1000000000000 x10
      + 1000000000000 x11 + 1000000000000 x12 + 1000000000000 x13
      + 1000000000000 x14 + 1000000000000 x15 + 1000000000000 x16
      + 1000000000000 x17 + 1000000000000 x18 + 1000000000000 x19
      + 1000000000000 x20 + 1000000000000 x21 + 1000000000000 x22
      + 1000000000000 x23 + 1000000000000 x24 + 1000000000000 x25
      + 1000000000000 x26 + 1000000000000 x27 + 1000000000000 x28
      + 1000000000000 x29 + 1000000000000 x30 + 1000000000000 x31
      + 1000000000000 x32 + 1000000000000 x33 + 1000000000000 x34
      + 1000000000000 x35 + 1000000000000 x36 + 1000000000000 x37
      + 1000000000000 x38 + 1000000000000 x39 + 1000000000000 x40
      + 1000000000000 x41 + 1000000000000 x42 + 1000000000000 x43
      + 1000000000000 x44 + 1000000000000 x45 + 1000000000000 x46
      + 1000000000000 x47 + 1000000000000 x48 + 1000000000000 x49
      + 1000000000000 x50 + x51 + x52 + x53 + x54 + x55 + x56 + x57 + x58 + x59
      + x60 + x61 + x62 + x63 + x64 + x65 + x66 + x67 + x68 + x69 + x70 + x71
      + x72 + x73 + x74 + x75 + x76 + x77 + x78 + x79 + x80 + x81 + x82 + x83
      + x84 + x85 + x86 + x87 + x88 + x89 + x90 + x91 + x92 + x93 + x94 + x95
      + x96 + x97 + x98 + x99 + x100 + x101 + x102 + x103 + x104 + x105 + x106
      + x107 + x108 + x109 + x110 + x111 + x112 + x113 + x114 + x115 + x116
      + x117 + x118 + x119 + x120 + x121 + x122 + x123 + x124 + x125 + x126
      + x127 + x128 + x129 + x130 + x131 + x132 + x133 + x134 + x135 + x136
      + x137 + x138 + x139 + x140 + x141 + x142 + x143 + x144 + x145 + x146
      + x147 + x148 + x149 + x150 + x151 + x152 + x153 + x154 + x155 + x156
      + x157 + x158 + x159 + x160 + x161 + x162 + x163 + x164 + x165 + x166
      + x167 + x168 + x169 + x170 + x171 + x172 + x173 + x174 + x175
Subject To
 c1:  x1 + x150  = 1
 c2:  x2 + x139  = 1
 c3:  x3 + x145  = 1
 c4:  x4 + x142  = 1
 c5:  x5 + x147  = 1
 c6:  x6 + x141  = 1
 c7:  x7 + x149  = 1
 c8:  x8 + x143 + x174  = 1
 c9:  x9 + x144  = 1
 c10: x10 + x134 + x138 + x173  = 1
 c11: x11 + x146 + x156 + x169  = 1
 c12: x12 + x125 + x133  = 1
 c13: x13 + x148 + x162 + x168  = 1
 c14: x14 + x97 + x123 + x158  = 1
 c15: x15 + x128 + x132 + x166  = 1
 c16: x16 + x140 + x152 + x155  = 1
 c17: x17 + x120 + x136  = 1
 c18: x18 + x121 + x124 + x137 + x167  = 1
 c19: x19 + x112 + x119 + x157  = 1
 c20: x20 + x109 + x111 + x131 + x165  = 1
 c21: x21 + x101 + x105 + x108 + x135 + x154 + x163 + x170 + x175  = 1
 c22: x22 + x99 + x106 + x117 + x153 + x164  = 1
 c23: x23 + x86 + x95 + x104 + x127 + x171 + x172  = 1
 c24: x24 + x93 + x94 + x103 + x110 + x115 + x118 + x126 + x129  = 1
 c25: x25 + x85 + x92 + x100 + x113 + x116 + x159  = 1
 c26: x26 + x88 + x89 + x90 + x91 + x151 + x160 + x161  = 1
 c27: x27 + x82 + x84 + x160  = 1
 c28: x28 + x82 + x83 + x161  = 1
 c29: x29 + x83 + x84 + x151 + x159  = 1
 c30: x30 + x75 + x77 + x81 + x85 + x96 + x102 + x106 + x154 + x171  = 1
 c31: x31 + x77 + x79 + x87 + x88 + x98 + x122 + x129 + x130 + x153  = 1
 c32: x32 + x63 + x72 + x76 + x94 + x98 + x113 + x164 + x175  = 1
 c33: x33 + x72 + x73 + x75 + x78 + x107 + x110 + x114 + x120 + x137  = 1
 c34: x34 + x70 + x72 + x81 + x92 + x112 + x172  = 1
 c35: x35 + x64 + x69 + x70 + x73 + x80 + x93 + x105 + x111 + x130 + x167  = 1
 c36: x36 + x67 + x68 + x70 + x73 + x74 + x86 + x96 + x99 + x102 + x107 + x108
      + x152  = 1
 c37: x37 + x67 + x68 + x69 + x71 + x78 + x80 + x87 + x90 + x118 + x121 + x135
      + x166  = 1
 c38: x38 + x62 + x65 + x66 + x67 + x69 + x79 + x89 + x95 + x114 + x119 + x122
      + x123  = 1
 c39: x39 + x62 + x63 + x64 + x65 + x66 + x71 + x76 + x78 + x96 + x101 + x116
      + x130 + x132 + x168  = 1
 c40: x40 + x57 + x58 + x59 + x60 + x62 + x64 + x71 + x74 + x79 + x90 + x100
      + x104 + x133 + x163  = 1
 c41: x41 + x57 + x58 + x59 + x60 + x61 + x63 + x65 + x78 + x80 + x91 + x102
      + x103 + x104 + x122 + x126 + x131  = 1
 c42: x42 + x51 + x52 + x53 + x54 + x55 + x56 + x57 + x58 + x61 + x63 + x64
      + x74 + x81 + x91 + x98 + x107 + x114 + x115 + x116 + x117 + x127 + x136
      + x155 + x156 + x170  = 1
 c43: x43 + x51 + x52 + x53 + x54 + x55 + x56 + x57 + x58 + x59 + x66 + x68
      + x70 + x76 + x87 + x93 + x107 + x109 + x117 + x122 + x125 + x163 + x165
      + x173  = 1
 c44: x44 + x51 + x52 + x53 + x54 + x55 + x56 + x57 + x61 + x62 + x65 + x68
      + x71 + x74 + x75 + x80 + x88 + x95 + x103 + x128 + x157 + x158 + x165
      + x174  = 1
 c45: x45 + x51 + x52 + x53 + x54 + x55 + x56 + x58 + x59 + x60 + x65 + x69
      + x76 + x80 + x81 + x86 + x100 + x101 + x109 + x114 + x118 + x124 + x134
       = 1
 c46: x46 + x51 + x52 + x53 + x54 + x55 + x58 + x61 + x62 + x66 + x67 + x71
      + x73 + x77 + x89 + x92 + x97 + x102 + x113 + x114 + x115 + x124 + x126
      + x157 + x162 + x169 + x170 + x172  = 1
 c47: x47 + x51 + x52 + x53 + x54 + x59 + x60 + x61 + x66 + x67 + x74 + x75
      + x76 + x87 + x89 + x91 + x96 + x97 + x100 + x110 + x126 + x127 + x130
      + x131 + x158 + x169  = 1
 c48: x48 + x51 + x52 + x53 + x59 + x60 + x61 + x66 + x68 + x69 + x74 + x77
      + x85 + x94 + x99 + x115 + x135 + x155 + x162 + x170  = 1
 c49: x49 + x51 + x52 + x59 + x60 + x62 + x63 + x70 + x75 + x86 + x87 + x89
      + x97 + x103 + x106 + x114 + x116 + x130 + x135 + x136 + x156 + x163
      + x173 + x175  = 1
 c50: x50 + x51 + x59 + x61 + x62 + x64 + x68 + x72 + x77 + x86 + x102 + x103
      + x105 + x107 + x109 + x110 + x115 + x119 + x121 + x129 + x164 + x170
      + x171 + x174  = 1
End
